(set-logic QF_BV)

(declare-const __ESBMC_ptr_obj_start_0 (_ BitVec 64))

(declare-const __ESBMC_ptr_obj_end_0 (_ BitVec 64))

(declare-const __ESBMC_ptr_obj_start_1 (_ BitVec 64))

(declare-const __ESBMC_ptr_obj_end_1 (_ BitVec 64))

(declare-const |smt_conv::__ESBMC_ptr_addr_range_0..start0| (_ BitVec 64))

(declare-const |smt_conv::__ESBMC_ptr_addr_range_0..end0| (_ BitVec 64))

(declare-const |smt_conv::__ESBMC_ptr_addr_range_1..start0| (_ BitVec 64))

(declare-const |smt_conv::__ESBMC_ptr_addr_range_1..end0| (_ BitVec 64))

(declare-const |smt_conv::smt_conv::collate_array_vals::3..start0| (_ BitVec 64))

(declare-const |smt_conv::smt_conv::collate_array_vals::3..end0| (_ BitVec 64))

(declare-const |smt_conv::smt_conv::collate_array_vals::4..start0| (_ BitVec 64))

(declare-const |smt_conv::smt_conv::collate_array_vals::4..end0| (_ BitVec 64))

(declare-const |smt_conv::smt_conv::collate_array_vals::7..start0| (_ BitVec 64))

(declare-const |smt_conv::smt_conv::collate_array_vals::7..end0| (_ BitVec 64))

(declare-const |c:sqrt1-ll_unwindbound100.c@592@F@main@n?1!0&0#1| (_ BitVec 32))

(declare-const |nondet$symex::nondet65| (_ BitVec 32))

(declare-const |goto_symex::guard?0!0&0#1| (_ BitVec 1))

(declare-const |goto_symex::guard?0!0&0#2| (_ BitVec 1))

(declare-const |goto_symex::guard?0!0&0#3| (_ BitVec 1))

(declare-const |goto_symex::guard?0!0&0#4| (_ BitVec 1))

(declare-const |goto_symex::guard?0!0&0#5| (_ BitVec 1))

(declare-const |goto_symex::guard?0!0&0#6| (_ BitVec 1))

(declare-const |goto_symex::guard?0!0&0#7| (_ BitVec 1))

(declare-const |goto_symex::guard?0!0&0#8| (_ BitVec 1))

(declare-const |goto_symex::guard?0!0&0#9| (_ BitVec 1))

(declare-const |goto_symex::guard?0!0&0#10| (_ BitVec 1))

(declare-const |goto_symex::guard?0!0&0#11| (_ BitVec 1))

(declare-const |c:sqrt1-ll_unwindbound100.c@603@F@main@a?1!0&0#14| (_ BitVec 64))

(declare-const |c:sqrt1-ll_unwindbound100.c@603@F@main@s?1!0&0#14| (_ BitVec 64))

(declare-const |c:sqrt1-ll_unwindbound100.c@603@F@main@t?1!0&0#14| (_ BitVec 64))

(declare-const |c:sqrt1-ll_unwindbound100.c@603@F@main@a?1!0&0#15| (_ BitVec 64))

(declare-const |c:sqrt1-ll_unwindbound100.c@603@F@main@s?1!0&0#15| (_ BitVec 64))

(declare-const |c:sqrt1-ll_unwindbound100.c@603@F@main@t?1!0&0#15| (_ BitVec 64))

(declare-const |c:sqrt1-ll_unwindbound100.c@603@F@main@a?1!0&0#16| (_ BitVec 64))

(declare-const |c:sqrt1-ll_unwindbound100.c@603@F@main@s?1!0&0#16| (_ BitVec 64))

(declare-const |c:sqrt1-ll_unwindbound100.c@603@F@main@t?1!0&0#16| (_ BitVec 64))

(declare-const |c:sqrt1-ll_unwindbound100.c@603@F@main@a?1!0&0#17| (_ BitVec 64))

(declare-const |c:sqrt1-ll_unwindbound100.c@603@F@main@s?1!0&0#17| (_ BitVec 64))

(declare-const |c:sqrt1-ll_unwindbound100.c@603@F@main@t?1!0&0#17| (_ BitVec 64))

(declare-const |c:sqrt1-ll_unwindbound100.c@603@F@main@a?1!0&0#18| (_ BitVec 64))

(declare-const |c:sqrt1-ll_unwindbound100.c@603@F@main@s?1!0&0#18| (_ BitVec 64))

(declare-const |c:sqrt1-ll_unwindbound100.c@603@F@main@t?1!0&0#18| (_ BitVec 64))

(declare-const |c:sqrt1-ll_unwindbound100.c@603@F@main@a?1!0&0#19| (_ BitVec 64))

(declare-const |c:sqrt1-ll_unwindbound100.c@603@F@main@s?1!0&0#19| (_ BitVec 64))

(declare-const |c:sqrt1-ll_unwindbound100.c@603@F@main@t?1!0&0#19| (_ BitVec 64))

(declare-const |c:sqrt1-ll_unwindbound100.c@603@F@main@a?1!0&0#20| (_ BitVec 64))

(declare-const |c:sqrt1-ll_unwindbound100.c@603@F@main@s?1!0&0#20| (_ BitVec 64))

(declare-const |c:sqrt1-ll_unwindbound100.c@603@F@main@t?1!0&0#20| (_ BitVec 64))

(declare-const |c:sqrt1-ll_unwindbound100.c@603@F@main@a?1!0&0#21| (_ BitVec 64))

(declare-const |c:sqrt1-ll_unwindbound100.c@603@F@main@s?1!0&0#21| (_ BitVec 64))

(declare-const |c:sqrt1-ll_unwindbound100.c@603@F@main@t?1!0&0#21| (_ BitVec 64))

(declare-const |c:sqrt1-ll_unwindbound100.c@603@F@main@a?1!0&0#22| (_ BitVec 64))

(declare-const |c:sqrt1-ll_unwindbound100.c@603@F@main@s?1!0&0#22| (_ BitVec 64))

(declare-const |c:sqrt1-ll_unwindbound100.c@603@F@main@t?1!0&0#22| (_ BitVec 64))

(declare-const |c:sqrt1-ll_unwindbound100.c@603@F@main@a?1!0&0#23| (_ BitVec 64))

(declare-const |c:sqrt1-ll_unwindbound100.c@603@F@main@s?1!0&0#23| (_ BitVec 64))

(declare-const |c:sqrt1-ll_unwindbound100.c@603@F@main@t?1!0&0#23| (_ BitVec 64))

(declare-const |c:sqrt1-ll_unwindbound100.c@469@F@__VERIFIER_assert@cond?34!0&0#1| (_ BitVec 32))

(declare-const |goto_symex::guard?0!0&0#12| (_ BitVec 1))

(declare-const |execution_statet::guard_exec?0!0| (_ BitVec 1))

(declare-const |c:sqrt1-ll_unwindbound100.c@469@F@__VERIFIER_assert@cond?35!0&0#1| (_ BitVec 32))

(declare-const |goto_symex::guard?0!0&0#13| (_ BitVec 1))

(declare-const |c:sqrt1-ll_unwindbound100.c@469@F@__VERIFIER_assert@cond?36!0&0#1| (_ BitVec 32))

(declare-const |goto_symex::guard?0!0&0#14| (_ BitVec 1))

(define-fun $e1 () (_ BitVec 64) 

 (concat 

  (ite 

   (= #b1 

    ((_ extract 31 31) |c:sqrt1-ll_unwindbound100.c@592@F@main@n?1!0&0#1|)) #b11111111111111111111111111111111 #b00000000000000000000000000000000) |c:sqrt1-ll_unwindbound100.c@592@F@main@n?1!0&0#1|))

(define-fun $e2 () (_ BitVec 1) 

 (bvand |goto_symex::guard?0!0&0#11| 

  (bvand |goto_symex::guard?0!0&0#10| 

   (bvand |goto_symex::guard?0!0&0#9| 

    (bvand |goto_symex::guard?0!0&0#8| 

     (bvand |goto_symex::guard?0!0&0#7| 

      (bvand |goto_symex::guard?0!0&0#6| 

       (bvand |goto_symex::guard?0!0&0#5| 

        (bvand |goto_symex::guard?0!0&0#4| 

         (bvand |goto_symex::guard?0!0&0#3| 

          (bvand |goto_symex::guard?0!0&0#1| |goto_symex::guard?0!0&0#2|)))))))))))

(define-fun $e3 () (_ BitVec 1) 

 (bvand |goto_symex::guard?0!0&0#1| 

  (bvand |goto_symex::guard?0!0&0#2| 

   (bvand |goto_symex::guard?0!0&0#3| 

    (bvand |goto_symex::guard?0!0&0#4| 

     (bvand |goto_symex::guard?0!0&0#5| 

      (bvand |goto_symex::guard?0!0&0#6| 

       (bvand |goto_symex::guard?0!0&0#7| 

        (bvand |goto_symex::guard?0!0&0#8| 

         (bvand |goto_symex::guard?0!0&0#9| 

          (bvand |goto_symex::guard?0!0&0#10| |goto_symex::guard?0!0&0#11|)))))))))))

(assert 

 (= __ESBMC_ptr_obj_start_0 #b0000000000000000000000000000000000000000000000000000000000000000))

(assert 

 (= #b0000000000000000000000000000000000000000000000000000000000000000 __ESBMC_ptr_obj_end_0))

(assert 

 (= __ESBMC_ptr_obj_start_1 #b0000000000000000000000000000000000000000000000000000000000000001))

(assert 

 (= #b1111111111111111111111111111111111111111111111111111111111111111 __ESBMC_ptr_obj_end_1))

(assert 

 (= __ESBMC_ptr_obj_end_0 |smt_conv::__ESBMC_ptr_addr_range_0..end0|))

(assert 

 (= __ESBMC_ptr_obj_start_0 |smt_conv::__ESBMC_ptr_addr_range_0..start0|))

(assert 

 (= __ESBMC_ptr_obj_end_1 |smt_conv::__ESBMC_ptr_addr_range_1..end0|))

(assert 

 (= __ESBMC_ptr_obj_start_1 |smt_conv::__ESBMC_ptr_addr_range_1..start0|))

(assert 

 (= |smt_conv::smt_conv::collate_array_vals::3..end0| |smt_conv::smt_conv::collate_array_vals::4..end0|))

(assert 

 (= |smt_conv::smt_conv::collate_array_vals::3..start0| |smt_conv::smt_conv::collate_array_vals::4..start0|))

(assert 

 (= __ESBMC_ptr_obj_end_0 |smt_conv::smt_conv::collate_array_vals::7..end0|))

(assert 

 (= __ESBMC_ptr_obj_start_0 |smt_conv::smt_conv::collate_array_vals::7..start0|))

(assert 

 (= |c:sqrt1-ll_unwindbound100.c@592@F@main@n?1!0&0#1| |nondet$symex::nondet65|))

(assert 

 (= |goto_symex::guard?0!0&0#1| 

  (bvnot 

   (ite 

    (bvslt $e1 #b0000000000000000000000000000000000000000000000000000000000000001) #b1 #b0))))

(assert 

 (= |goto_symex::guard?0!0&0#2| 

  (bvnot 

   (ite 

    (bvslt $e1 #b0000000000000000000000000000000000000000000000000000000000000100) #b1 #b0))))

(assert 

 (= |goto_symex::guard?0!0&0#3| 

  (bvnot 

   (ite 

    (bvslt $e1 #b0000000000000000000000000000000000000000000000000000000000001001) #b1 #b0))))

(assert 

 (= |goto_symex::guard?0!0&0#4| 

  (bvnot 

   (ite 

    (bvslt $e1 #b0000000000000000000000000000000000000000000000000000000000010000) #b1 #b0))))

(assert 

 (= |goto_symex::guard?0!0&0#5| 

  (bvnot 

   (ite 

    (bvslt $e1 #b0000000000000000000000000000000000000000000000000000000000011001) #b1 #b0))))

(assert 

 (= |goto_symex::guard?0!0&0#6| 

  (bvnot 

   (ite 

    (bvslt $e1 #b0000000000000000000000000000000000000000000000000000000000100100) #b1 #b0))))

(assert 

 (= |goto_symex::guard?0!0&0#7| 

  (bvnot 

   (ite 

    (bvslt $e1 #b0000000000000000000000000000000000000000000000000000000000110001) #b1 #b0))))

(assert 

 (= |goto_symex::guard?0!0&0#8| 

  (bvnot 

   (ite 

    (bvslt $e1 #b0000000000000000000000000000000000000000000000000000000001000000) #b1 #b0))))

(assert 

 (= |goto_symex::guard?0!0&0#9| 

  (bvnot 

   (ite 

    (bvslt $e1 #b0000000000000000000000000000000000000000000000000000000001010001) #b1 #b0))))

(assert 

 (= |goto_symex::guard?0!0&0#10| 

  (bvnot 

   (ite 

    (bvslt $e1 #b0000000000000000000000000000000000000000000000000000000001100100) #b1 #b0))))

(assert 

 (= |goto_symex::guard?0!0&0#11| 

  (bvnot 

   (ite 

    (bvslt $e1 #b0000000000000000000000000000000000000000000000000000000001111001) #b1 #b0))))

(assert 

 (= |c:sqrt1-ll_unwindbound100.c@603@F@main@a?1!0&0#14| 

  (ite 

   (= #b1 |goto_symex::guard?0!0&0#10|) #b0000000000000000000000000000000000000000000000000000000000001010 #b0000000000000000000000000000000000000000000000000000000000001001)))

(assert 

 (= |c:sqrt1-ll_unwindbound100.c@603@F@main@s?1!0&0#14| 

  (ite 

   (= #b1 |goto_symex::guard?0!0&0#10|) #b0000000000000000000000000000000000000000000000000000000001111001 #b0000000000000000000000000000000000000000000000000000000001100100)))

(assert 

 (= |c:sqrt1-ll_unwindbound100.c@603@F@main@t?1!0&0#14| 

  (ite 

   (= #b1 |goto_symex::guard?0!0&0#10|) #b0000000000000000000000000000000000000000000000000000000000010101 #b0000000000000000000000000000000000000000000000000000000000010011)))

(assert 

 (= |c:sqrt1-ll_unwindbound100.c@603@F@main@a?1!0&0#15| 

  (ite 

   (= #b1 |goto_symex::guard?0!0&0#9|) |c:sqrt1-ll_unwindbound100.c@603@F@main@a?1!0&0#14| #b0000000000000000000000000000000000000000000000000000000000001000)))

(assert 

 (= |c:sqrt1-ll_unwindbound100.c@603@F@main@s?1!0&0#15| 

  (ite 

   (= #b1 |goto_symex::guard?0!0&0#9|) |c:sqrt1-ll_unwindbound100.c@603@F@main@s?1!0&0#14| #b0000000000000000000000000000000000000000000000000000000001010001)))

(assert 

 (= |c:sqrt1-ll_unwindbound100.c@603@F@main@t?1!0&0#15| 

  (ite 

   (= #b1 |goto_symex::guard?0!0&0#9|) |c:sqrt1-ll_unwindbound100.c@603@F@main@t?1!0&0#14| #b0000000000000000000000000000000000000000000000000000000000010001)))

(assert 

 (= |c:sqrt1-ll_unwindbound100.c@603@F@main@a?1!0&0#16| 

  (ite 

   (= #b1 |goto_symex::guard?0!0&0#8|) |c:sqrt1-ll_unwindbound100.c@603@F@main@a?1!0&0#15| #b0000000000000000000000000000000000000000000000000000000000000111)))

(assert 

 (= |c:sqrt1-ll_unwindbound100.c@603@F@main@s?1!0&0#16| 

  (ite 

   (= #b1 |goto_symex::guard?0!0&0#8|) |c:sqrt1-ll_unwindbound100.c@603@F@main@s?1!0&0#15| #b0000000000000000000000000000000000000000000000000000000001000000)))

(assert 

 (= |c:sqrt1-ll_unwindbound100.c@603@F@main@t?1!0&0#16| 

  (ite 

   (= #b1 |goto_symex::guard?0!0&0#8|) |c:sqrt1-ll_unwindbound100.c@603@F@main@t?1!0&0#15| #b0000000000000000000000000000000000000000000000000000000000001111)))

(assert 

 (= |c:sqrt1-ll_unwindbound100.c@603@F@main@a?1!0&0#17| 

  (ite 

   (= #b1 |goto_symex::guard?0!0&0#7|) |c:sqrt1-ll_unwindbound100.c@603@F@main@a?1!0&0#16| #b0000000000000000000000000000000000000000000000000000000000000110)))

(assert 

 (= |c:sqrt1-ll_unwindbound100.c@603@F@main@s?1!0&0#17| 

  (ite 

   (= #b1 |goto_symex::guard?0!0&0#7|) |c:sqrt1-ll_unwindbound100.c@603@F@main@s?1!0&0#16| #b0000000000000000000000000000000000000000000000000000000000110001)))

(assert 

 (= |c:sqrt1-ll_unwindbound100.c@603@F@main@t?1!0&0#17| 

  (ite 

   (= #b1 |goto_symex::guard?0!0&0#7|) |c:sqrt1-ll_unwindbound100.c@603@F@main@t?1!0&0#16| #b0000000000000000000000000000000000000000000000000000000000001101)))

(assert 

 (= |c:sqrt1-ll_unwindbound100.c@603@F@main@a?1!0&0#18| 

  (ite 

   (= #b1 |goto_symex::guard?0!0&0#6|) |c:sqrt1-ll_unwindbound100.c@603@F@main@a?1!0&0#17| #b0000000000000000000000000000000000000000000000000000000000000101)))

(assert 

 (= |c:sqrt1-ll_unwindbound100.c@603@F@main@s?1!0&0#18| 

  (ite 

   (= #b1 |goto_symex::guard?0!0&0#6|) |c:sqrt1-ll_unwindbound100.c@603@F@main@s?1!0&0#17| #b0000000000000000000000000000000000000000000000000000000000100100)))

(assert 

 (= |c:sqrt1-ll_unwindbound100.c@603@F@main@t?1!0&0#18| 

  (ite 

   (= #b1 |goto_symex::guard?0!0&0#6|) |c:sqrt1-ll_unwindbound100.c@603@F@main@t?1!0&0#17| #b0000000000000000000000000000000000000000000000000000000000001011)))

(assert 

 (= |c:sqrt1-ll_unwindbound100.c@603@F@main@a?1!0&0#19| 

  (ite 

   (= #b1 |goto_symex::guard?0!0&0#5|) |c:sqrt1-ll_unwindbound100.c@603@F@main@a?1!0&0#18| #b0000000000000000000000000000000000000000000000000000000000000100)))

(assert 

 (= |c:sqrt1-ll_unwindbound100.c@603@F@main@s?1!0&0#19| 

  (ite 

   (= #b1 |goto_symex::guard?0!0&0#5|) |c:sqrt1-ll_unwindbound100.c@603@F@main@s?1!0&0#18| #b0000000000000000000000000000000000000000000000000000000000011001)))

(assert 

 (= |c:sqrt1-ll_unwindbound100.c@603@F@main@t?1!0&0#19| 

  (ite 

   (= #b1 |goto_symex::guard?0!0&0#5|) |c:sqrt1-ll_unwindbound100.c@603@F@main@t?1!0&0#18| #b0000000000000000000000000000000000000000000000000000000000001001)))

(assert 

 (= |c:sqrt1-ll_unwindbound100.c@603@F@main@a?1!0&0#20| 

  (ite 

   (= #b1 |goto_symex::guard?0!0&0#4|) |c:sqrt1-ll_unwindbound100.c@603@F@main@a?1!0&0#19| #b0000000000000000000000000000000000000000000000000000000000000011)))

(assert 

 (= |c:sqrt1-ll_unwindbound100.c@603@F@main@s?1!0&0#20| 

  (ite 

   (= #b1 |goto_symex::guard?0!0&0#4|) |c:sqrt1-ll_unwindbound100.c@603@F@main@s?1!0&0#19| #b0000000000000000000000000000000000000000000000000000000000010000)))

(assert 

 (= |c:sqrt1-ll_unwindbound100.c@603@F@main@t?1!0&0#20| 

  (ite 

   (= #b1 |goto_symex::guard?0!0&0#4|) |c:sqrt1-ll_unwindbound100.c@603@F@main@t?1!0&0#19| #b0000000000000000000000000000000000000000000000000000000000000111)))

(assert 

 (= |c:sqrt1-ll_unwindbound100.c@603@F@main@a?1!0&0#21| 

  (ite 

   (= #b1 |goto_symex::guard?0!0&0#3|) |c:sqrt1-ll_unwindbound100.c@603@F@main@a?1!0&0#20| #b0000000000000000000000000000000000000000000000000000000000000010)))

(assert 

 (= |c:sqrt1-ll_unwindbound100.c@603@F@main@s?1!0&0#21| 

  (ite 

   (= #b1 |goto_symex::guard?0!0&0#3|) |c:sqrt1-ll_unwindbound100.c@603@F@main@s?1!0&0#20| #b0000000000000000000000000000000000000000000000000000000000001001)))

(assert 

 (= |c:sqrt1-ll_unwindbound100.c@603@F@main@t?1!0&0#21| 

  (ite 

   (= #b1 |goto_symex::guard?0!0&0#3|) |c:sqrt1-ll_unwindbound100.c@603@F@main@t?1!0&0#20| #b0000000000000000000000000000000000000000000000000000000000000101)))

(assert 

 (= |c:sqrt1-ll_unwindbound100.c@603@F@main@a?1!0&0#22| 

  (ite 

   (= #b1 |goto_symex::guard?0!0&0#2|) |c:sqrt1-ll_unwindbound100.c@603@F@main@a?1!0&0#21| #b0000000000000000000000000000000000000000000000000000000000000001)))

(assert 

 (= |c:sqrt1-ll_unwindbound100.c@603@F@main@s?1!0&0#22| 

  (ite 

   (= #b1 |goto_symex::guard?0!0&0#2|) |c:sqrt1-ll_unwindbound100.c@603@F@main@s?1!0&0#21| #b0000000000000000000000000000000000000000000000000000000000000100)))

(assert 

 (= |c:sqrt1-ll_unwindbound100.c@603@F@main@t?1!0&0#22| 

  (ite 

   (= #b1 |goto_symex::guard?0!0&0#2|) |c:sqrt1-ll_unwindbound100.c@603@F@main@t?1!0&0#21| #b0000000000000000000000000000000000000000000000000000000000000011)))

(assert 

 (= |c:sqrt1-ll_unwindbound100.c@603@F@main@a?1!0&0#23| 

  (ite 

   (= #b1 |goto_symex::guard?0!0&0#1|) |c:sqrt1-ll_unwindbound100.c@603@F@main@a?1!0&0#22| #b0000000000000000000000000000000000000000000000000000000000000000)))

(assert 

 (= |c:sqrt1-ll_unwindbound100.c@603@F@main@s?1!0&0#23| 

  (ite 

   (= #b1 |goto_symex::guard?0!0&0#1|) |c:sqrt1-ll_unwindbound100.c@603@F@main@s?1!0&0#22| #b0000000000000000000000000000000000000000000000000000000000000001)))

(assert 

 (= |c:sqrt1-ll_unwindbound100.c@603@F@main@t?1!0&0#23| 

  (ite 

   (= #b1 |goto_symex::guard?0!0&0#1|) |c:sqrt1-ll_unwindbound100.c@603@F@main@t?1!0&0#22| #b0000000000000000000000000000000000000000000000000000000000000001)))

(assert 

 (= |c:sqrt1-ll_unwindbound100.c@469@F@__VERIFIER_assert@cond?34!0&0#1| 

  (ite 

   (= |c:sqrt1-ll_unwindbound100.c@603@F@main@t?1!0&0#23| 

    (bvadd #b0000000000000000000000000000000000000000000000000000000000000001 

     (bvmul #b0000000000000000000000000000000000000000000000000000000000000010 |c:sqrt1-ll_unwindbound100.c@603@F@main@a?1!0&0#23|))) #b00000000000000000000000000000001 #b00000000000000000000000000000000)))

(assert 

 (= |goto_symex::guard?0!0&0#12| 

  (ite 

   (= #b00000000000000000000000000000000 |c:sqrt1-ll_unwindbound100.c@469@F@__VERIFIER_assert@cond?34!0&0#1|) #b1 #b0)))

(assert 

 (= |c:sqrt1-ll_unwindbound100.c@469@F@__VERIFIER_assert@cond?35!0&0#1| 

  (ite 

   (= |c:sqrt1-ll_unwindbound100.c@603@F@main@s?1!0&0#23| 

    (bvmul 

     (bvnot |c:sqrt1-ll_unwindbound100.c@603@F@main@a?1!0&0#23|) 

     (bvnot |c:sqrt1-ll_unwindbound100.c@603@F@main@a?1!0&0#23|))) #b00000000000000000000000000000001 #b00000000000000000000000000000000)))

(assert 

 (= |goto_symex::guard?0!0&0#13| 

  (ite 

   (= #b00000000000000000000000000000000 |c:sqrt1-ll_unwindbound100.c@469@F@__VERIFIER_assert@cond?35!0&0#1|) #b1 #b0)))

(assert 

 (= |c:sqrt1-ll_unwindbound100.c@469@F@__VERIFIER_assert@cond?36!0&0#1| 

  (ite 

   (= #b1111111111111111111111111111111111111111111111111111111111111111 

    (bvadd 

     (bvadd 

      (bvmul |c:sqrt1-ll_unwindbound100.c@603@F@main@t?1!0&0#23| |c:sqrt1-ll_unwindbound100.c@603@F@main@t?1!0&0#23|) 

      (bvmul #b1111111111111111111111111111111111111111111111111111111111111100 |c:sqrt1-ll_unwindbound100.c@603@F@main@s?1!0&0#23|)) 

     (bvmul #b0000000000000000000000000000000000000000000000000000000000000010 |c:sqrt1-ll_unwindbound100.c@603@F@main@t?1!0&0#23|))) #b00000000000000000000000000000001 #b00000000000000000000000000000000)))

(assert 

 (= |goto_symex::guard?0!0&0#14| 

  (ite 

   (= #b00000000000000000000000000000000 |c:sqrt1-ll_unwindbound100.c@469@F@__VERIFIER_assert@cond?36!0&0#1|) #b1 #b0)))

(assert (= 

 (bvnot 

  (bvand 

   (bvnot 

    (bvand 

     (bvnot $e2) 

     (bvand |execution_statet::guard_exec?0!0| 

      (bvand 

       (bvnot $e3) |goto_symex::guard?0!0&0#14|)))) 

   (bvand 

    (bvnot 

     (bvand 

      (bvnot $e2) 

      (bvand 

       (bvand 

        (bvnot $e3) |goto_symex::guard?0!0&0#12|) |execution_statet::guard_exec?0!0|))) 

    (bvnot 

     (bvand 

      (bvnot $e2) 

      (bvand |execution_statet::guard_exec?0!0| 

       (bvand 

        (bvnot $e3) |goto_symex::guard?0!0&0#13|))))))) #b1))

(check-sat)

(exit)
